Translating instance to solver...

Set parameter TimeLimit to value 28800
Gurobi Optimizer version 11.0.2 build v11.0.2rc0 (linux64 - "Ubuntu 22.04.4 LTS")

CPU model: Intel(R) Xeon(R) Gold 5120 CPU @ 2.20GHz, instruction set [SSE2|AVX|AVX2|AVX512]
Thread count: 28 physical cores, 56 logical processors, using up to 28 threads

Academic license 2463511 - for non-commercial use only - registered to lu___@cefet-rj.br
Optimize a model with 12725 rows, 7643 columns and 31653 nonzeros
Model fingerprint: 0xc54c7817
Variable types: 1 continuous, 7642 integer (7620 binary)
Coefficient statistics:
  Matrix range     [1e+00, 1e+05]
  Objective range  [3e-01, 8e-01]
  Bounds range     [1e+00, 2e+01]
  RHS range        [1e+00, 5e+01]
Presolve removed 10507 rows and 6685 columns
Presolve time: 0.17s
Presolved: 2218 rows, 958 columns, 7429 nonzeros
Variable types: 0 continuous, 958 integer (937 binary)

Root relaxation: objective 9.810128e-01, 565 iterations, 0.01 seconds (0.01 work units)

    Nodes    |    Current Node    |     Objective Bounds      |     Work
 Expl Unexpl |  Obj  Depth IntInf | Incumbent    BestBd   Gap | It/Node Time

     0     0    0.98101    0   89          -    0.98101      -     -    0s
H    0     0                       2.4294550    0.98101  59.6%     -    0s
H    0     0                       1.3676730    0.98101  28.3%     -    0s
H    0     0                       1.0617820    0.98101  7.61%     -    0s
     0     0    0.98101    0  134    1.06178    0.98101  7.61%     -    0s

Explored 1 nodes (1289 simplex iterations) in 0.41 seconds (0.27 work units)
Thread count was 28 (of 56 available processors)

Solution count 4: 1.06178 1.06178 1.36767 2.42945 

Optimal solution found (tolerance 1.00e-04)
Best objective 1.061782000000e+00, best bound 1.061782000000e+00, gap 0.0000%

Solver Wallclock Time (for this epsilon): 0.4147508144378662 s
Python wallclock Time (for this epsilon): 1.424445390701294 s


Total Elapsed Time (since program call): 18.853692054748535 s

Results:

I = 1.061782 mA
C = 50.0 points
C ~= 20.0 km^2

Minimum Epsilon for this instance = 10
Maximum Epsilon for this instance = 100

Current Epsilon = 50


Preprocessing Time (for this epsilon): 0.003402233123779297 s


Updated solution vectors:
sol_I = [-0.611782,-1.061782,-1.061782,-1.061782,-1.061782]
sol_C = [14.0,48.0,48.0,49.0,50.0]
sol_eps = [10,20,30,40,50]
sol_gap = [0.0,0.0,0.0,0.0,0.0]
